p tw 117 21061 2 
1 3 
1 4 
1 5 
1 6 
1 7 
1 8 
1 9 
1 10 
1 11 
1 12 
1 13 
1 14 
1 15 
1 16 
1 17 
1 18 
1 19 
1 20 
1 21 
1 22 
1 23 
1 24 
1 25 
1 26 
1 27 
1 28 
1 29 
1 30 
1 31 
1 32 
1 33 
1 34 
1 35 
1 36 
1 37 
2 3 
2 4 
2 5 
2 6 
2 7 
2 8 
2 9 
2 10 
2 11 
2 12 
2 13 
2 14 
2 17 
2 26 
2 28 
2 38 
2 39 
2 40 
2 41 
2 42 
2 43 
2 44 
2 45 
2 46 
2 47 
2 48 
2 57 
2 66 
2 67 
2 68 
2 69 
2 70 
2 71 
2 72 
2 73 
3 4 
3 5 
3 6 
3 7 
3 8 
3 9 
3 10 
3 11 
3 12 
3 13 
3 15 
3 21 
3 27 
3 31 
3 38 
3 42 
3 48 
3 49 
3 50 
3 51 
3 52 
3 53 
3 54 
3 55 
3 56 
3 59 
3 68 
3 76 
3 82 
3 87 
3 92 
3 93 
3 94 
3 95 
4 5 
4 6 
4 7 
4 8 
4 9 
4 10 
4 11 
4 12 
4 13 
4 16 
4 18 
4 27 
4 29 
4 39 
4 40 
4 49 
4 57 
4 58 
4 59 
4 60 
4 61 
4 62 
4 63 
4 64 
4 65 
4 66 
4 74 
4 75 
4 76 
4 77 
4 78 
4 79 
4 80 
5 6 
5 7 
5 8 
5 9 
5 10 
5 11 
5 12 
5 13 
5 18 
5 19 
5 26 
5 35 
5 47 
5 50 
5 51 
5 58 
5 65 
5 67 
5 73 
5 74 
5 81 
5 82 
5 83 
5 84 
5 85 
5 86 
5 95 
5 98 
5 102 
5 106 
5 109 
5 116 
6 7 
6 8 
6 9 
6 10 
6 11 
6 12 
6 13 
6 20 
6 23 
6 30 
6 34 
6 41 
6 44 
6 51 
6 53 
6 57 
6 61 
6 68 
6 75 
6 77 
6 81 
6 83 
6 87 
6 88 
6 89 
6 90 
6 91 
6 103 
6 104 
6 105 
6 106 
7 8 
7 9 
7 10 
7 11 
7 12 
7 13 
7 22 
7 24 
7 29 
7 32 
7 43 
7 46 
7 52 
7 53 
7 58 
7 64 
7 69 
7 73 
7 77 
7 86 
7 87 
7 90 
7 93 
7 96 
7 97 
7 98 
7 99 
7 100 
7 110 
7 111 
8 9 
8 10 
8 11 
8 12 
8 13 
8 15 
8 16 
8 28 
8 33 
8 41 
8 42 
8 50 
8 60 
8 70 
8 78 
8 79 
8 83 
8 88 
8 92 
8 96 
8 98 
8 100 
8 101 
8 102 
8 105 
8 110 
8 112 
8 114 
8 115 
9 10 
9 11 
9 12 
9 13 
9 20 
9 21 
9 35 
9 36 
9 43 
9 45 
9 52 
9 56 
9 61 
9 62 
9 71 
9 72 
9 79 
9 80 
9 81 
9 82 
9 100 
9 102 
9 103 
9 107 
9 108 
9 111 
9 112 
9 117 
10 11 
10 12 
10 13 
10 23 
10 24 
10 31 
10 37 
10 38 
10 40 
10 54 
10 60 
10 63 
10 67 
10 72 
10 76 
10 84 
10 89 
10 91 
10 96 
10 97 
10 105 
10 107 
10 108 
10 109 
10 110 
10 116 
10 117 
11 12 
11 13 
11 22 
11 25 
11 30 
11 33 
11 44 
11 45 
11 54 
11 55 
11 62 
11 63 
11 66 
11 69 
11 74 
11 85 
11 90 
11 92 
11 95 
11 101 
11 104 
11 109 
11 111 
11 113 
11 114 
11 117 
12 13 
12 14 
12 25 
12 32 
12 36 
12 39 
12 48 
12 49 
12 65 
12 70 
12 78 
12 85 
12 86 
12 89 
12 91 
12 93 
12 94 
12 99 
12 104 
12 106 
12 107 
12 108 
12 112 
12 113 
12 115 
13 17 
13 19 
13 34 
13 37 
13 46 
13 47 
13 55 
13 56 
13 59 
13 64 
13 71 
13 75 
13 80 
13 84 
13 88 
13 94 
13 97 
13 99 
13 101 
13 103 
13 113 
13 114 
13 115 
13 116 
14 15 
14 16 
14 17 
14 18 
14 19 
14 20 
14 21 
14 22 
14 23 
14 24 
14 25 
14 26 
14 32 
14 38 
14 39 
14 40 
14 41 
14 42 
14 43 
14 44 
14 45 
14 46 
14 47 
14 48 
14 65 
14 78 
14 86 
14 89 
14 94 
14 104 
14 108 
14 112 
14 113 
15 16 
15 17 
15 18 
15 19 
15 20 
15 21 
15 22 
15 23 
15 24 
15 25 
15 27 
15 33 
15 38 
15 42 
15 48 
15 49 
15 50 
15 51 
15 52 
15 53 
15 54 
15 55 
15 56 
15 60 
15 70 
15 78 
15 83 
15 88 
15 96 
15 100 
15 101 
15 102 
16 17 
16 18 
16 19 
16 20 
16 21 
16 22 
16 23 
16 24 
16 25 
16 27 
16 28 
16 39 
16 41 
16 50 
16 57 
16 58 
16 59 
16 60 
16 61 
16 62 
16 63 
16 64 
16 65 
16 79 
16 92 
16 98 
16 105 
16 110 
16 112 
16 114 
16 115 
17 18 
17 19 
17 20 
17 21 
17 22 
17 23 
17 24 
17 25 
17 28 
17 37 
17 47 
17 48 
17 55 
17 57 
17 64 
17 66 
17 67 
17 68 
17 69 
17 70 
17 71 
17 72 
17 73 
17 80 
17 84 
17 88 
17 94 
17 99 
17 103 
17 114 
18 19 
18 20 
18 21 
18 22 
18 23 
18 24 
18 25 
18 29 
18 35 
18 40 
18 47 
18 49 
18 51 
18 65 
18 66 
18 73 
18 74 
18 75 
18 76 
18 77 
18 78 
18 79 
18 80 
18 95 
18 98 
18 102 
18 106 
18 109 
18 116 
19 20 
19 21 
19 22 
19 23 
19 24 
19 25 
19 26 
19 34 
19 46 
19 50 
19 56 
19 58 
19 59 
19 67 
19 71 
19 74 
19 75 
19 81 
19 82 
19 83 
19 84 
19 85 
19 86 
19 97 
19 101 
19 113 
19 115 
19 116 
20 21 
20 22 
20 23 
20 24 
20 25 
20 30 
20 36 
20 41 
20 43 
20 51 
20 56 
20 57 
20 61 
20 72 
20 75 
20 80 
20 81 
20 82 
20 87 
20 88 
20 89 
20 90 
20 91 
20 102 
20 111 
20 112 
20 117 
21 22 
21 23 
21 24 
21 25 
21 31 
21 35 
21 42 
21 45 
21 52 
21 59 
21 62 
21 68 
21 71 
21 76 
21 79 
21 81 
21 82 
21 87 
21 92 
21 93 
21 94 
21 95 
21 100 
21 103 
21 107 
21 108 
22 23 
22 24 
22 25 
22 30 
22 32 
22 43 
22 45 
22 52 
22 55 
22 58 
22 63 
22 66 
22 69 
22 77 
22 85 
22 87 
22 92 
22 96 
22 97 
22 98 
22 99 
22 101 
22 104 
22 109 
22 111 
23 24 
23 25 
23 31 
23 34 
23 40 
23 44 
23 53 
23 54 
23 60 
23 61 
23 68 
23 72 
23 77 
23 83 
23 84 
23 89 
23 97 
23 103 
23 104 
23 105 
23 106 
23 107 
23 109 
23 110 
24 25 
24 29 
24 37 
24 38 
24 46 
24 53 
24 63 
24 64 
24 67 
24 73 
24 76 
24 86 
24 90 
24 91 
24 93 
24 96 
24 100 
24 105 
24 108 
24 110 
24 111 
24 116 
24 117 
25 33 
25 36 
25 39 
25 44 
25 49 
25 54 
25 62 
25 69 
25 70 
25 74 
25 85 
25 90 
25 91 
25 93 
25 95 
25 99 
25 106 
25 107 
25 113 
25 114 
25 115 
25 117 
26 27 
26 28 
26 29 
26 30 
26 31 
26 32 
26 33 
26 34 
26 35 
26 36 
26 37 
26 38 
26 39 
26 40 
26 41 
26 42 
26 43 
26 44 
26 45 
26 46 
26 47 
26 50 
26 58 
26 67 
26 74 
26 81 
26 82 
26 83 
26 84 
26 85 
26 86 
27 28 
27 29 
27 30 
27 31 
27 32 
27 33 
27 34 
27 35 
27 36 
27 37 
27 38 
27 39 
27 48 
27 49 
27 50 
27 51 
27 52 
27 53 
27 54 
27 55 
27 56 
27 57 
27 58 
27 59 
27 60 
27 61 
27 62 
27 63 
27 64 
27 65 
28 29 
28 30 
28 31 
28 32 
28 33 
28 34 
28 35 
28 36 
28 37 
28 41 
28 48 
28 50 
28 57 
28 66 
28 67 
28 68 
28 69 
28 70 
28 71 
28 72 
28 73 
28 79 
28 92 
28 98 
28 105 
28 110 
28 112 
28 114 
28 115 
29 30 
29 31 
29 32 
29 33 
29 34 
29 35 
29 36 
29 37 
29 40 
29 46 
29 49 
29 53 
29 64 
29 66 
29 73 
29 74 
29 75 
29 76 
29 77 
29 78 
29 79 
29 80 
29 86 
29 90 
29 93 
29 100 
29 110 
29 111 
30 31 
30 32 
30 33 
30 34 
30 35 
30 36 
30 37 
30 41 
30 45 
30 51 
30 55 
30 57 
30 63 
30 66 
30 75 
30 81 
30 85 
30 87 
30 88 
30 89 
30 90 
30 91 
30 92 
30 101 
30 104 
30 109 
30 111 
31 32 
31 33 
31 34 
31 35 
31 36 
31 37 
31 40 
31 42 
31 54 
31 59 
31 60 
31 68 
31 72 
31 76 
31 82 
31 84 
31 87 
31 89 
31 92 
31 93 
31 94 
31 95 
31 97 
31 107 
31 109 
31 110 
32 33 
32 34 
32 35 
32 36 
32 37 
32 43 
32 48 
32 52 
32 58 
32 65 
32 69 
32 77 
32 78 
32 86 
32 87 
32 89 
32 94 
32 96 
32 97 
32 98 
32 99 
32 104 
32 108 
32 112 
32 113 
33 34 
33 35 
33 36 
33 37 
33 42 
33 44 
33 54 
33 60 
33 62 
33 69 
33 70 
33 74 
33 78 
33 83 
33 88 
33 90 
33 95 
33 96 
33 100 
33 101 
33 102 
33 113 
33 114 
33 117 
34 35 
34 36 
34 37 
34 44 
34 46 
34 53 
34 56 
34 59 
34 61 
34 68 
34 71 
34 75 
34 77 
34 83 
34 97 
34 101 
34 103 
34 104 
34 105 
34 106 
34 113 
34 115 
34 116 
35 36 
35 37 
35 45 
35 47 
35 51 
35 52 
35 62 
35 65 
35 71 
35 73 
35 79 
35 81 
35 95 
35 98 
35 100 
35 102 
35 103 
35 106 
35 107 
35 108 
35 109 
35 116 
36 37 
36 39 
36 43 
36 49 
36 56 
36 61 
36 70 
36 72 
36 80 
36 82 
36 85 
36 91 
36 93 
36 99 
36 102 
36 106 
36 107 
36 111 
36 112 
36 115 
36 117 
37 38 
37 47 
37 55 
37 63 
37 64 
37 67 
37 76 
37 80 
37 84 
37 88 
37 91 
37 94 
37 96 
37 99 
37 103 
37 105 
37 108 
37 114 
37 116 
37 117 
38 39 
38 40 
38 41 
38 42 
38 43 
38 44 
38 45 
38 46 
38 47 
38 48 
38 49 
38 50 
38 51 
38 52 
38 53 
38 54 
38 55 
38 56 
38 63 
38 67 
38 76 
38 91 
38 96 
38 105 
38 108 
38 116 
38 117 
39 40 
39 41 
39 42 
39 43 
39 44 
39 45 
39 46 
39 47 
39 49 
39 57 
39 58 
39 59 
39 60 
39 61 
39 62 
39 63 
39 64 
39 65 
39 70 
39 85 
39 91 
39 93 
39 99 
39 106 
39 107 
39 115 
40 41 
40 42 
40 43 
40 44 
40 45 
40 46 
40 47 
40 49 
40 54 
40 60 
40 66 
40 72 
40 74 
40 75 
40 76 
40 77 
40 78 
40 79 
40 80 
40 84 
40 89 
40 97 
40 107 
40 109 
40 110 
41 42 
41 43 
41 44 
41 45 
41 46 
41 47 
41 50 
41 51 
41 57 
41 75 
41 79 
41 81 
41 87 
41 88 
41 89 
41 90 
41 91 
41 92 
41 98 
41 105 
41 110 
41 112 
41 114 
41 115 
42 43 
42 44 
42 45 
42 46 
42 47 
42 59 
42 60 
42 68 
42 70 
42 76 
42 78 
42 82 
42 83 
42 87 
42 88 
42 92 
42 93 
42 94 
42 95 
42 96 
42 100 
42 101 
42 102 
43 44 
43 45 
43 46 
43 47 
43 52 
43 56 
43 58 
43 61 
43 69 
43 72 
43 77 
43 80 
43 82 
43 87 
43 96 
43 97 
43 98 
43 99 
43 102 
43 111 
43 112 
43 117 
44 45 
44 46 
44 47 
44 53 
44 54 
44 61 
44 62 
44 68 
44 69 
44 74 
44 77 
44 83 
44 90 
44 95 
44 103 
44 104 
44 105 
44 106 
44 113 
44 114 
44 117 
45 46 
45 47 
45 52 
45 55 
45 62 
45 63 
45 66 
45 71 
45 79 
45 81 
45 85 
45 92 
45 100 
45 101 
45 103 
45 104 
45 107 
45 108 
45 109 
45 111 
46 47 
46 53 
46 56 
46 59 
46 64 
46 71 
46 73 
46 75 
46 86 
46 90 
46 93 
46 97 
46 100 
46 101 
46 110 
46 111 
46 113 
46 115 
46 116 
47 51 
47 55 
47 64 
47 65 
47 73 
47 80 
47 84 
47 88 
47 94 
47 95 
47 98 
47 99 
47 102 
47 103 
47 106 
47 109 
47 114 
47 116 
48 49 
48 50 
48 51 
48 52 
48 53 
48 54 
48 55 
48 56 
48 57 
48 65 
48 66 
48 67 
48 68 
48 69 
48 70 
48 71 
48 72 
48 73 
48 78 
48 86 
48 89 
48 94 
48 104 
48 108 
48 112 
48 113 
49 50 
49 51 
49 52 
49 53 
49 54 
49 55 
49 56 
49 66 
49 70 
49 74 
49 75 
49 76 
49 77 
49 78 
49 79 
49 80 
49 85 
49 91 
49 93 
49 99 
49 106 
49 107 
49 115 
50 51 
50 52 
50 53 
50 54 
50 55 
50 56 
50 58 
50 67 
50 74 
50 79 
50 81 
50 82 
50 83 
50 84 
50 85 
50 86 
50 92 
50 98 
50 105 
50 110 
50 112 
50 114 
50 115 
51 52 
51 53 
51 54 
51 55 
51 56 
51 57 
51 65 
51 73 
51 75 
51 81 
51 87 
51 88 
51 89 
51 90 
51 91 
51 95 
51 98 
51 102 
51 106 
51 109 
51 116 
52 53 
52 54 
52 55 
52 56 
52 58 
52 62 
52 69 
52 71 
52 77 
52 79 
52 81 
52 87 
52 96 
52 97 
52 98 
52 99 
52 100 
52 103 
52 107 
52 108 
53 54 
53 55 
53 56 
53 61 
53 64 
53 68 
53 73 
53 77 
53 83 
53 86 
53 90 
53 93 
53 100 
53 103 
53 104 
53 105 
53 106 
53 110 
53 111 
54 55 
54 56 
54 60 
54 62 
54 69 
54 72 
54 74 
54 84 
54 89 
54 90 
54 95 
54 97 
54 107 
54 109 
54 110 
54 113 
54 114 
54 117 
55 56 
55 63 
55 64 
55 66 
55 80 
55 84 
55 85 
55 88 
55 92 
55 94 
55 99 
55 101 
55 103 
55 104 
55 109 
55 111 
55 114 
56 59 
56 61 
56 71 
56 72 
56 75 
56 80 
56 82 
56 97 
56 101 
56 102 
56 111 
56 112 
56 113 
56 115 
56 116 
56 117 
57 58 
57 59 
57 60 
57 61 
57 62 
57 63 
57 64 
57 65 
57 66 
57 67 
57 68 
57 69 
57 70 
57 71 
57 72 
57 73 
57 75 
57 81 
57 87 
57 88 
57 89 
57 90 
57 91 
58 59 
58 60 
58 61 
58 62 
58 63 
58 64 
58 65 
58 67 
58 69 
58 74 
58 77 
58 81 
58 82 
58 83 
58 84 
58 85 
58 86 
58 87 
58 96 
58 97 
58 98 
58 99 
59 60 
59 61 
59 62 
59 63 
59 64 
59 65 
59 68 
59 71 
59 75 
59 76 
59 82 
59 87 
59 92 
59 93 
59 94 
59 95 
59 97 
59 101 
59 113 
59 115 
59 116 
60 61 
60 62 
60 63 
60 64 
60 65 
60 70 
60 72 
60 78 
60 83 
60 84 
60 88 
60 89 
60 96 
60 97 
60 100 
60 101 
60 102 
60 107 
60 109 
60 110 
61 62 
61 63 
61 64 
61 65 
61 68 
61 72 
61 77 
61 80 
61 82 
61 83 
61 102 
61 103 
61 104 
61 105 
61 106 
61 111 
61 112 
61 117 
62 63 
62 64 
62 65 
62 69 
62 71 
62 74 
62 79 
62 81 
62 90 
62 95 
62 100 
62 103 
62 107 
62 108 
62 113 
62 114 
62 117 
63 64 
63 65 
63 66 
63 67 
63 76 
63 85 
63 91 
63 92 
63 96 
63 101 
63 104 
63 105 
63 108 
63 109 
63 111 
63 116 
63 117 
64 65 
64 73 
64 80 
64 84 
64 86 
64 88 
64 90 
64 93 
64 94 
64 99 
64 100 
64 103 
64 110 
64 111 
64 114 
65 73 
65 78 
65 86 
65 89 
65 94 
65 95 
65 98 
65 102 
65 104 
65 106 
65 108 
65 109 
65 112 
65 113 
65 116 
66 67 
66 68 
66 69 
66 70 
66 71 
66 72 
66 73 
66 74 
66 75 
66 76 
66 77 
66 78 
66 79 
66 80 
66 85 
66 92 
66 101 
66 104 
66 109 
66 111 
67 68 
67 69 
67 70 
67 71 
67 72 
67 73 
67 74 
67 76 
67 81 
67 82 
67 83 
67 84 
67 85 
67 86 
67 91 
67 96 
67 105 
67 108 
67 116 
67 117 
68 69 
68 70 
68 71 
68 72 
68 73 
68 76 
68 77 
68 82 
68 83 
68 87 
68 92 
68 93 
68 94 
68 95 
68 103 
68 104 
68 105 
68 106 
69 70 
69 71 
69 72 
69 73 
69 74 
69 77 
69 87 
69 90 
69 95 
69 96 
69 97 
69 98 
69 99 
69 113 
69 114 
69 117 
70 71 
70 72 
70 73 
70 78 
70 83 
70 85 
70 88 
70 91 
70 93 
70 96 
70 99 
70 100 
70 101 
70 102 
70 106 
70 107 
70 115 
71 72 
71 73 
71 75 
71 79 
71 81 
71 97 
71 100 
71 101 
71 103 
71 107 
71 108 
71 113 
71 115 
71 116 
72 73 
72 80 
72 82 
72 84 
72 89 
72 97 
72 102 
72 107 
72 109 
72 110 
72 111 
72 112 
72 117 
73 86 
73 90 
73 93 
73 95 
73 98 
73 100 
73 102 
73 106 
73 109 
73 110 
73 111 
73 116 
74 75 
74 76 
74 77 
74 78 
74 79 
74 80 
74 81 
74 82 
74 83 
74 84 
74 85 
74 86 
74 90 
74 95 
74 113 
74 114 
74 117 
75 76 
75 77 
75 78 
75 79 
75 80 
75 81 
75 87 
75 88 
75 89 
75 90 
75 91 
75 97 
75 101 
75 113 
75 115 
75 116 
76 77 
76 78 
76 79 
76 80 
76 82 
76 87 
76 91 
76 92 
76 93 
76 94 
76 95 
76 96 
76 105 
76 108 
76 116 
76 117 
77 78 
77 79 
77 80 
77 83 
77 87 
77 96 
77 97 
77 98 
77 99 
77 103 
77 104 
77 105 
77 106 
78 79 
78 80 
78 83 
78 86 
78 88 
78 89 
78 94 
78 96 
78 100 
78 101 
78 102 
78 104 
78 108 
78 112 
78 113 
79 80 
79 81 
79 92 
79 98 
79 100 
79 103 
79 105 
79 107 
79 108 
79 110 
79 112 
79 114 
79 115 
80 82 
80 84 
80 88 
80 94 
80 99 
80 102 
80 103 
80 111 
80 112 
80 114 
80 117 
81 82 
81 83 
81 84 
81 85 
81 86 
81 87 
81 88 
81 89 
81 90 
81 91 
81 100 
81 103 
81 107 
81 108 
82 83 
82 84 
82 85 
82 86 
82 87 
82 92 
82 93 
82 94 
82 95 
82 102 
82 111 
82 112 
82 117 
83 84 
83 85 
83 86 
83 88 
83 96 
83 100 
83 101 
83 102 
83 103 
83 104 
83 105 
83 106 
84 85 
84 86 
84 88 
84 89 
84 94 
84 97 
84 99 
84 103 
84 107 
84 109 
84 110 
84 114 
85 86 
85 91 
85 92 
85 93 
85 99 
85 101 
85 104 
85 106 
85 107 
85 109 
85 111 
85 115 
86 89 
86 90 
86 93 
86 94 
86 100 
86 104 
86 108 
86 110 
86 111 
86 112 
86 113 
87 88 
87 89 
87 90 
87 91 
87 92 
87 93 
87 94 
87 95 
87 96 
87 97 
87 98 
87 99 
88 89 
88 90 
88 91 
88 94 
88 96 
88 99 
88 100 
88 101 
88 102 
88 103 
88 114 
89 90 
89 91 
89 94 
89 97 
89 104 
89 107 
89 108 
89 109 
89 110 
89 112 
89 113 
90 91 
90 93 
90 95 
90 100 
90 110 
90 111 
90 113 
90 114 
90 117 
91 93 
91 96 
91 99 
91 105 
91 106 
91 107 
91 108 
91 115 
91 116 
91 117 
92 93 
92 94 
92 95 
92 98 
92 101 
92 104 
92 105 
92 109 
92 110 
92 111 
92 112 
92 114 
92 115 
93 94 
93 95 
93 99 
93 100 
93 106 
93 107 
93 110 
93 111 
93 115 
94 95 
94 99 
94 103 
94 104 
94 108 
94 112 
94 113 
94 114 
95 98 
95 102 
95 106 
95 109 
95 113 
95 114 
95 116 
95 117 
96 97 
96 98 
96 99 
96 100 
96 101 
96 102 
96 105 
96 108 
96 116 
96 117 
97 98 
97 99 
97 101 
97 107 
97 109 
97 110 
97 113 
97 115 
97 116 
98 99 
98 102 
98 105 
98 106 
98 109 
98 110 
98 112 
98 114 
98 115 
98 116 
99 103 
99 106 
99 107 
99 114 
99 115 
100 101 
100 102 
100 103 
100 107 
100 108 
100 110 
100 111 
101 102 
101 104 
101 109 
101 111 
101 113 
101 115 
101 116 
102 106 
102 109 
102 111 
102 112 
102 116 
102 117 
103 104 
103 105 
103 106 
103 107 
103 108 
103 114 
104 105 
104 106 
104 108 
104 109 
104 111 
104 112 
104 113 
105 106 
105 108 
105 110 
105 112 
105 114 
105 115 
105 116 
105 117 
106 107 
106 109 
106 115 
106 116 
107 108 
107 109 
107 110 
107 115 
108 112 
108 113 
108 116 
108 117 
109 110 
109 111 
109 116 
110 111 
110 112 
110 114 
110 115 
111 112 
111 117 
112 113 
112 114 
112 115 
112 117 
113 114 
113 115 
113 116 
113 117 
114 115 
114 117 
115 116 
116 117 
